rc2_10_2

VEHICLE
NUMBER   CAPACITY
250     1000

CUSTOMER
CUST NO. XCOORD.  YCOORD.  DEMAND  READY TIME DUE DATE  SERVICE TIME

0   250    250     0     0    7284     0
968 311 422 29 0 7092 10
398 348 348 23 3739 3859 10
741 313 391 5 598 718 10
237 331 356 13 2847 2967 10
271 299 353 34 396 516 10
498 377 385 6 3465 3585 10
88 334 403 26 638 758 10
49 340 416 36 0 7086 10
202 346 354 8 3270 3390 10
850 286 356 30 388 508 10
617 307 412 8 1615 1735 10
297 371 423 10 784 904 10
459 370 382 11 3535 3655 10
265 330 371 1 2234 2354 10
